c SAT Generator for power-law distributed variable frequencies
c -g u -v 20 -c 91 -k 3 -p 2.750000 -b 3.200000 -f /home/schmidt/Devel/ni-kop-sat/data/ensemble/ruf20-91/ruf20-91-169 -u 1 -U 1 -s 111778235
p cnf 20 91
-4 18 20 0
-4 11 14 0
16 -17 19 0
1 -13 -20 0
-2 16 19 0
12 15 -18 0
1 3 9 0
5 -15 -16 0
5 9 -12 0
-6 14 -19 0
-4 7 -20 0
5 10 17 0
7 11 17 0
6 -8 19 0
-3 -15 18 0
1 8 -18 0
3 -7 19 0
-2 -7 -10 0
1 -5 15 0
11 -12 16 0
1 -13 -14 0
-1 2 10 0
4 -5 -6 0
8 16 18 0
11 18 -19 0
3 -11 12 0
-6 7 9 0
-3 5 -8 0
-11 13 18 0
1 -9 13 0
-5 10 -18 0
-3 9 13 0
-2 -12 15 0
14 15 20 0
3 -18 -19 0
3 -5 7 0
3 -6 -15 0
-3 -4 -14 0
6 -10 -17 0
7 11 -16 0
-1 15 17 0
-2 8 18 0
-8 -11 -19 0
4 7 -12 0
-4 -14 -16 0
-1 -11 -17 0
4 6 -15 0
-4 10 16 0
-2 -17 -18 0
-2 6 -17 0
11 -13 15 0
2 -4 -5 0
-6 8 -15 0
-7 -14 -17 0
-2 -3 11 0
1 5 -15 0
-1 -6 -13 0
2 -7 -14 0
-2 -3 -7 0
-3 12 18 0
-9 11 -13 0
-8 -9 -12 0
8 -9 -14 0
7 -14 -16 0
6 9 14 0
3 13 -14 0
-2 -6 -11 0
5 -10 -16 0
-8 -13 -15 0
5 14 -15 0
6 -13 -15 0
2 6 -14 0
1 -7 20 0
-2 5 6 0
9 11 16 0
3 -4 -7 0
-1 -11 -12 0
-6 13 -17 0
3 7 13 0
2 7 8 0
5 9 15 0
3 11 -15 0
-4 8 9 0
-11 -12 -18 0
-1 -2 18 0
6 14 18 0
-1 9 -11 0
6 -7 -9 0
-6 11 -12 0
4 -5 6 0
-4 9 -16 0
